20
2
2  7 9 
4  5 6 8 10 
2
2  1 4 
2  2 3 
2
2  2 3 
4  5 6 8 10 
3
2  2 3 
4  5 6 8 10 
2  1 4 
3
2  1 4 
2  2 3 
4  5 6 8 10 
2
4  5 6 8 10 
2  1 4 
3
2  1 4 
2  7 9 
4  5 6 8 10 
2
4  5 6 8 10 
2  2 3 
2
4  5 6 8 10 
2  7 9 
2
2  7 9 
2  1 4 
2
2  2 3 
2  1 4 
3
4  5 6 8 10 
2  7 9 
2  1 4 
3
4  5 6 8 10 
2  7 9 
2  2 3 
2
2  2 3 
2  7 9 
2
4  5 6 8 10 
2  7 9 
3
4  5 6 8 10 
2  1 4 
2  2 3 
2
2  1 4 
4  5 6 8 10 
3
2  1 4 
2  7 9 
4  5 6 8 10 
2
4  5 6 8 10 
2  7 9 
2
2  2 3 
4  5 6 8 10 
